WARNING: for repeatability, setting FPU to use double precision
 -----------------------------------------------------------------------------------------------------------------------
|                                 manysat2.0    4 thread(s) on 8 core(s)                                                |
 -----------------------------------------------------------------------------------------------------------------------
 ===============================================[ Problem Statistics ]==================================================
|                                                                                                                       |
|  Number of cores:                 4                                                                                   |
|  Number of variables:         13408                                                                                   |
|  Number of clauses:          308391                                                                                   |
|  Parse time:                   0.29 s                                                                                 |
|                                                                                                                       |
 ==============================================[ Search Statistics ]====================================================
|   Thread  | Conflicts |          ORIGINAL         |          LEARNT          |  exported  / imported      |  Progress |
|    (id)   |           |    Vars  Clauses Literals |    Limit  Clauses Lit/Cl |  (clauses by restart)      |           |
 =======================================================================================================================
|         0 |       100 |   13025   308322  1771843 |   113051      100      6 |           0  -           0 |  2.857 %  |
|         0 |       250 |   13025   308322  1771843 |   124356      250      6 |           0  -           0 |  2.857 %  |
|         0 |       475 |   13025   308322  1771843 |   136792      521      6 |           0  -          46 |  2.857 %  |
|         2 |       100 |   13024   308322  1771843 |   113076      773      6 |           0  -         674 |  2.864 %  |
|         3 |       100 |   13025   308322  1771843 |   113076      854      6 |         384  -         754 |  2.857 %  |
|         2 |       250 |   13024   308322  1771843 |   124384     1293      6 |           0  -        1044 |  2.864 %  |
|         1 |       100 |   13025   308322  1771843 |   113076     1280      6 |         384  -        1180 |  2.857 %  |
|         0 |       812 |   13025   308322  1771843 |   150471     1378      6 |         384  -         565 |  2.857 %  |
|         3 |       250 |   13024   308322  1771843 |   124384     1545      6 |         384  -        1295 |  2.864 %  |
|         1 |       250 |   13024   308322  1771843 |   124384     1968      6 |         384  -        1718 |  2.864 %  |
|         2 |       475 |   13024   308322  1771843 |   136822     2163      6 |           0  -        1689 |  2.864 %  |
|         3 |       475 |   13024   308322  1771843 |   136822     2303      6 |         384  -        1828 |  2.864 %  |
|         1 |       475 |   13024   308322  1771843 |   136822     2898      6 |         384  -        2423 |  2.864 %  |
|         2 |       812 |   13024   308322  1771843 |   150505     3309      6 |           0  -        2498 |  2.864 %  |
|         0 |      1318 |   13024   308322  1771843 |   165518     3357      6 |         384  -        2038 |  2.864 %  |
|         3 |       812 |   13024   308322  1771843 |   150505     3416      6 |         384  -        2604 |  2.864 %  |
|         1 |       812 |   13024   308322  1771843 |   150505     4143      6 |         384  -        3331 |  2.864 %  |
|         2 |      1318 |   13024   308322  1771843 |   165555     5081      6 |           0  -        3764 |  2.864 %  |
|         3 |      1318 |   13024   308322  1771843 |   165555     5264      6 |         384  -        3946 |  2.864 %  |
|         1 |      1318 |   13024   308322  1771843 |   165555     5928      6 |         384  -        4610 |  2.864 %  |
|         0 |      2077 |   13024   308322  1771843 |   182070     6529      6 |         384  -        4451 |  2.864 %  |
|         2 |      2077 |   13024   308322  1771843 |   182111     7928      6 |           0  -        5851 |  2.864 %  |
|         3 |      2077 |   13024   308322  1771843 |   182111     7947      6 |         384  -        5870 |  2.864 %  |
|         1 |      2077 |   13024   308322  1771843 |   182111     8565      6 |         384  -        6488 |  2.864 %  |
|         0 |      3216 |   13024   308322  1771843 |   200277    10861      6 |         384  -        7644 |  2.864 %  |
|         3 |      3216 |   13024   308322  1771843 |   200322    11874      6 |         384  -        8658 |  2.864 %  |
|         2 |      3216 |   13024   308322  1771843 |   200322    12299      6 |           0  -        9083 |  2.864 %  |
|         1 |      3216 |   13024   308322  1771843 |   200322    12884      6 |         384  -        9668 |  2.864 %  |
|         0 |      4924 |   13024   308322  1771843 |   220305    16847      6 |         385  -       11922 |  2.864 %  |
|         3 |      4924 |   13024   308322  1771843 |   220354    17925      6 |         385  -       13001 |  2.864 %  |
|         2 |      4924 |   13021   308322  1771843 |   220354    18661      6 |           0  -       13737 |  2.886 %  |
|         1 |      4924 |   13024   308322  1771843 |   220354    19048      6 |         385  -       14123 |  2.864 %  |
|         1 |      7486 |   13021   308322  1771843 |   242389    26164      7 |         385  -       18677 |  2.886 %  |
|         3 |      7486 |   13021   308322  1771843 |   242389    26665      6 |         385  -       19179 |  2.886 %  |
|         0 |      7486 |   13021   308322  1771843 |   242335    26894      6 |         385  -       19407 |  2.886 %  |
|         2 |      7486 |   13021   308322  1771843 |   242389    28447      6 |           0  -       20961 |  2.886 %  |
|         3 |     11330 |   13021   308322  1771843 |   266628    36975      8 |         388  -       25644 |  2.886 %  |
|         2 |     11330 |   13020   308322  1771843 |   266628    37428      8 |           0  -       26099 |  2.894 %  |
|         1 |     11330 |   13021   308322  1771843 |   266628    37488      7 |         388  -       26157 |  2.886 %  |
|         0 |     11330 |   13021   308322  1771843 |   266569    38495      7 |         388  -       27164 |  2.886 %  |
|         3 |     17096 |   13020   308322  1771843 |   293291    50836      9 |         777  -       33739 |  2.894 %  |
|         2 |     17096 |   13020   308322  1771843 |   293291    51501      9 |         389  -       34406 |  2.894 %  |
|         0 |     17096 |   13019   308322  1771843 |   293226    54006      8 |         778  -       36910 |  2.901 %  |
|         1 |     17096 |   13020   308322  1771843 |   293291    54511      8 |        1169  -       37414 |  2.894 %  |
|         3 |     25745 |   13018   308322  1771843 |   322621    67549     12 |         779  -       41804 |  2.909 %  |
|         0 |     25745 |   13017   308322  1771843 |   322548    70041     11 |         778  -       44297 |  2.916 %  |
|         2 |     25745 |   13019   308322  1771843 |   322621    71968     10 |         782  -       46224 |  2.901 %  |
|         1 |     25745 |   13017   308322  1771843 |   322621    73120      9 |        1175  -       47374 |  2.916 %  |
|         0 |     38719 |   13016   308234  1771520 |   354803    91737     14 |         783  -       53027 |  2.924 %  |
|         3 |     38719 |   13017   308234  1771520 |   354883    95047     13 |         785  -       56333 |  2.916 %  |
|         1 |     38719 |   13015   308198  1771381 |   354883    99341     11 |        1175  -       60630 |  2.931 %  |
|         2 |     38719 |   13015   308212  1771438 |   354883   104252     11 |         782  -       65544 |  2.931 %  |
|         0 |     58180 |   13015   308234  1771520 |   390284   138809     14 |         783  -       80638 |  2.931 %  |
|         1 |     58180 |   13015   308198  1771381 |   390371   137241     13 |        1175  -       79069 |  2.931 %  |
|         3 |     58180 |   13015   308234  1771520 |   390371   142139     12 |         785  -       83964 |  2.931 %  |
|         2 |     58180 |   13015   308212  1771438 |   390371   148314     12 |         784  -       90145 |  2.931 %  |
|         0 |     87372 |   13014   308176  1771299 |   429312   200621     16 |         783  -      113264 |  2.939 %  |
|         1 |     87372 |   13015   308198  1771381 |   429408   194057     15 |        1177  -      106693 |  2.931 %  |
|         3 |     87372 |   13015   308198  1771381 |   429408   195521     13 |         787  -      108159 |  2.931 %  |
|         2 |     87372 |   13014   308176  1771299 |   429408   222850     13 |         784  -      135492 |  2.939 %  |
|         0 |    131161 |   13014   308176  1771299 |   472243   293674     16 |         783  -      162528 |  2.939 %  |
|         3 |    131161 |   13013   308158  1771232 |   472349   287272     13 |         787  -      156124 |  2.946 %  |
|         1 |    131161 |   13014   308176  1771299 |   472349   306476     15 |        1183  -      175325 |  2.939 %  |
|         2 |    131161 |   13014   308176  1771299 |   472349   315709     15 |         790  -      184562 |  2.939 %  |
|         3 |    196845 |   13012   308158  1771232 |   519584   390863     16 |         787  -      194032 |  2.953 %  |
|         0 |    196845 |   13014   308176  1771299 |   519468   444840     16 |         789  -      248010 |  2.939 %  |
|         1 |    196845 |   13012   308176  1771299 |   519584   450413     17 |        1183  -      253578 |  2.953 %  |
|         2 |    196845 |   13012   308143  1771175 |   519584   458772     17 |         790  -      261941 |  2.953 %  |
|         2 |    295371 |   13012   308143  1771175 |   571542   157314     18 |         790  -      338844 |  2.953 %  |
|         1 |    295371 |   13012   308143  1771175 |   571542   130964     19 |        1183  -      325621 |  2.953 %  |
|         0 |    295371 |   13012   308143  1771175 |   571414   157710     13 |         789  -      345120 |  2.953 %  |
|         3 |    295371 |   13012   308143  1771175 |   571542   183179     22 |         787  -      341555 |  2.953 %  |
|         1 |    443160 |   13012   308143  1771175 |   628697   386218     21 |        1183  -      433086 |  2.953 %  |
|         0 |    443160 |   13012   308143  1771175 |   628556   412984     20 |         789  -      452604 |  2.953 %  |
|         3 |    443160 |   13012   308143  1771175 |   628697   430855     26 |         787  -      441442 |  2.953 %  |
|         2 |    443160 |   13012   308143  1771175 |   628697   440474     21 |         790  -      474215 |  2.953 %  |
|         1 |    664843 |   13012   308143  1771175 |   691566   100118     34 |        1183  -      533785 |  2.953 %  |
|         0 |    664843 |   13011   308138  1771162 |   691412   163857     22 |         789  -      576226 |  2.961 %  |
|         3 |    664843 |   13012   308143  1771175 |   691566   226533     23 |         790  -      604886 |  2.953 %  |
|         1 |    997368 |   13012   308143  1771175 |   760723   632906     29 |        1186  -      734048 |  2.953 %  |
|         2 |    664843 |   13012   308143  1771175 |   691566   419615     50 |         793  -      792721 |  2.953 %  |
|         3 |    997368 |   13011   308138  1771162 |   760723   688961     30 |         790  -      734789 |  2.961 %  |
|         0 |    997368 |   13011   308138  1771162 |   760553   632728     29 |         789  -      712572 |  2.961 %  |
|         2 |    997368 |   13011   308138  1771162 |   760723   344072     31 |         793  -     1026906 |  2.961 %  |
|         1 |   1496156 |   13011   308138  1771162 |   836795   758366     32 |        1186  -     1078032 |  2.961 %  |
|         0 |   1496156 |   13011   308138  1771162 |   836608   736304     49 |         789  -     1046637 |  2.961 %  |
|         3 |   1496156 |   13011   308138  1771162 |   836795   176107     73 |         790  -     1157856 |  2.961 %  |
|         2 |   1496156 |   13011   308138  1771162 |   836795   400337     45 |         793  -     1317259 |  2.961 %  |
|         1 |   2244338 |   13011   308138  1771162 |   920475   230530     37 |        1186  -     1410747 |  2.961 %  |
|         0 |   2244338 |   13011   308138  1771162 |   920269   342011     37 |         789  -     1497884 |  2.961 %  |
|         3 |   2244338 |   13011   308138  1771162 |   920475   514331     27 |         790  -     1547352 |  2.961 %  |
|         2 |   2244338 |   13011   308138  1771162 |   920475    87964     17 |         793  -     1812379 |  2.961 %  |
|         1 |   3366612 |   13011   308138  1771162 |  1012522   192012     33 |        1186  -     2039878 |  2.961 %  |
|         0 |   3366612 |   13011   308138  1771162 |  1012296   324347     32 |         789  -     2117494 |  2.961 %  |
|         3 |   3366612 |   13011   308138  1771162 |  1012522   508414     32 |         790  -     2188840 |  2.961 %  |
|         2 |   3366612 |   13011   308138  1771162 |  1012522   308004     99 |         793  -     2659949 |  2.961 %  |
|         3 |   5050023 |   13011   308138  1771162 |  1113775    89373     33 |         790  -     2997134 |  2.961 %  |
|         1 |   5050023 |   13011   308138  1771162 |  1113775   915623     33 |        1186  -     3024350 |  2.961 %  |
|         0 |   5050023 |   13011   308138  1771162 |  1113526   884536     29 |         789  -     2949525 |  2.961 %  |
|         2 |   5050023 |   13007   308121  1771116 |  1113775   986517     31 |         794  -     3609166 |  2.991 %  |
|         0 |   7575139 |   13007   308121  1771116 |  1224878   266136     55 |        1192  -     4128205 |  2.991 %  |
|         3 |   7575139 |   13011   308138  1771162 |  1225152   854670     46 |        1194  -     4497394 |  2.961 %  |
|         1 |   7575139 |   13007   308121  1771116 |  1225152   672528     34 |        1192  -     4549784 |  2.991 %  |
